200
23000
00001
3210012
210012
3000001
1211001
121000
310000
113001
2301
0001
3031001
303110
303200
1200012
303011
1220
12301
2010
0031010
003200
0033101
0033000
01000
02000
03010
310100
3102000
3103001
310310
33010
110000
111001
11110
1120012
322000
323000
3030010
3211001
321110
00300020
321220
3200020
32121
321320
32131
23100
23200
2330012
113100
1132001
113210
11330012
2220
221
1000
1300
0012
002001
00210
21012
21100
212000
2130012
31120
122110
31200
31301
3010012
30211
30330011
300010
3001010
300201
3003000
121110
121201
121300
